# Solution for model r5_t18_m1_6 Batch Number: 4
# Finished Task: 18 / 18
# Makespan: 543.0, Total Distance: 438.0, Total Time: 1.3876
# R O S F Batch
0 0 20 0.0 0.0 -1
1 1 21 0.0 0.0 -1
2 2 7 0.0 0.0 -1
3 3 11 0.0 0.0 -1
4 4 6 0.0 0.0 -1
5 1 9 415.0 454.0 1
6 4 14 301.0 321.0 3
7 2 8 205.0 230.0 0
8 2 12 262.0 290.0 0
9 1 22 477.0 509.0 2
10 2 16 475.0 502.0 3
11 3 17 397.0 430.0 0
12 2 15 332.0 367.0 0
13 0 -1 466.0 488.0 2
14 4 -1 502.0 530.0 3
15 2 10 407.0 432.0 3
16 2 -1 517.0 543.0 3
17 3 -1 454.0 475.0 3
18 0 13 430.0 466.0 2
19 1 5 367.0 397.0 0
20 0 18 406.0 430.0 0
21 1 19 311.0 332.0 0
22 1 -1 521.0 543.0 2
